c This file contains the Einstain's puzzle expressed in CNF
p cnf 125 1075
c The Brit live in the red house.
26 0
c The Swede keeps dogs as pets.
56 0
c The Dane drinks tea.
86 0
c The German smokes Prince.
119 0
c The Norwegian lives in the first house.
21 0
c The green house's owner drinks coffee.
-27 77 0
-32 82 0
-37 87 0
-42 92 0
-47 97 0
c The person who smokes PallMall rears birds.
-102 53 0
-107 58 0
-112 63 0
-117 68 0
-122 73 0
c The owner of the yellow house smokes Dunhill.
-29 103 0
-34 108 0
-39 113 0
-44 118 0
-49 123 0
c The man living in the center house drinks milk.
-3 79 0
-8 84 0
-13 89 0
-18 94 0
-23 99 0
c The owner who smokes Bluemasters drinks beer.
-101 80 0
-106 85 0
-111 90 0
-116 95 0
-121 100 0
c The green house is on the left of the white house.
-1 -27 -7 33 0
-2 -27 -8 33 0
-3 -27 -9 33 0
-4 -27 -10 33 0
-1 -27 -12 38 0
-2 -27 -13 38 0
-3 -27 -14 38 0
-4 -27 -15 38 0
-1 -27 -17 43 0
-2 -27 -18 43 0
-3 -27 -19 43 0
-4 -27 -20 43 0
-1 -27 -22 48 0
-2 -27 -23 48 0
-3 -27 -24 48 0
-4 -27 -25 48 0
-6 -32 -2 28 0
-7 -32 -3 28 0
-8 -32 -4 28 0
-9 -32 -5 28 0
-6 -32 -12 38 0
-7 -32 -13 38 0
-8 -32 -14 38 0
-9 -32 -15 38 0
-6 -32 -17 43 0
-7 -32 -18 43 0
-8 -32 -19 43 0
-9 -32 -20 43 0
-6 -32 -22 48 0
-7 -32 -23 48 0
-8 -32 -24 48 0
-9 -32 -25 48 0
-11 -37 -2 28 0
-12 -37 -3 28 0
-13 -37 -4 28 0
-14 -37 -5 28 0
-11 -37 -7 33 0
-12 -37 -8 33 0
-13 -37 -9 33 0
-14 -37 -10 33 0
-11 -37 -17 43 0
-12 -37 -18 43 0
-13 -37 -19 43 0
-14 -37 -20 43 0
-11 -37 -22 48 0
-12 -37 -23 48 0
-13 -37 -24 48 0
-14 -37 -25 48 0
-16 -42 -2 28 0
-17 -42 -3 28 0
-18 -42 -4 28 0
-19 -42 -5 28 0
-16 -42 -7 33 0
-17 -42 -8 33 0
-18 -42 -9 33 0
-19 -42 -10 33 0
-16 -42 -12 38 0
-17 -42 -13 38 0
-18 -42 -14 38 0
-19 -42 -15 38 0
-16 -42 -22 48 0
-17 -42 -23 48 0
-18 -42 -24 48 0
-19 -42 -25 48 0
-21 -47 -2 28 0
-22 -47 -3 28 0
-23 -47 -4 28 0
-24 -47 -5 28 0
-21 -47 -7 33 0
-22 -47 -8 33 0
-23 -47 -9 33 0
-24 -47 -10 33 0
-21 -47 -12 38 0
-22 -47 -13 38 0
-23 -47 -14 38 0
-24 -47 -15 38 0
-21 -47 -17 43 0
-22 -47 -18 43 0
-23 -47 -19 43 0
-24 -47 -20 43 0
c The man who smokes Blends lives next to the one who keeps cats.
-1 -105 -7 57 0
-2 -105 -8 57 0
-3 -105 -9 57 0
-4 -105 -10 57 0
-5 -105 -9 57 0
-4 -105 -8 57 0
-3 -105 -7 57 0
-2 -105 -6 57 0
-1 -105 -12 62 0
-2 -105 -13 62 0
-3 -105 -14 62 0
-4 -105 -15 62 0
-5 -105 -14 62 0
-4 -105 -13 62 0
-3 -105 -12 62 0
-2 -105 -11 62 0
-1 -105 -17 67 0
-2 -105 -18 67 0
-3 -105 -19 67 0
-4 -105 -20 67 0
-5 -105 -19 67 0
-4 -105 -18 67 0
-3 -105 -17 67 0
-2 -105 -16 67 0
-1 -105 -22 72 0
-2 -105 -23 72 0
-3 -105 -24 72 0
-4 -105 -25 72 0
-5 -105 -24 72 0
-4 -105 -23 72 0
-3 -105 -22 72 0
-2 -105 -21 72 0
-6 -110 -2 52 0
-7 -110 -3 52 0
-8 -110 -4 52 0
-9 -110 -5 52 0
-10 -110 -4 52 0
-9 -110 -3 52 0
-8 -110 -2 52 0
-7 -110 -1 52 0
-6 -110 -12 62 0
-7 -110 -13 62 0
-8 -110 -14 62 0
-9 -110 -15 62 0
-10 -110 -14 62 0
-9 -110 -13 62 0
-8 -110 -12 62 0
-7 -110 -11 62 0
-6 -110 -17 67 0
-7 -110 -18 67 0
-8 -110 -19 67 0
-9 -110 -20 67 0
-10 -110 -19 67 0
-9 -110 -18 67 0
-8 -110 -17 67 0
-7 -110 -16 67 0
-6 -110 -22 72 0
-7 -110 -23 72 0
-8 -110 -24 72 0
-9 -110 -25 72 0
-10 -110 -24 72 0
-9 -110 -23 72 0
-8 -110 -22 72 0
-7 -110 -21 72 0
-11 -115 -2 52 0
-12 -115 -3 52 0
-13 -115 -4 52 0
-14 -115 -5 52 0
-15 -115 -4 52 0
-14 -115 -3 52 0
-13 -115 -2 52 0
-12 -115 -1 52 0
-11 -115 -7 57 0
-12 -115 -8 57 0
-13 -115 -9 57 0
-14 -115 -10 57 0
-15 -115 -9 57 0
-14 -115 -8 57 0
-13 -115 -7 57 0
-12 -115 -6 57 0
-11 -115 -17 67 0
-12 -115 -18 67 0
-13 -115 -19 67 0
-14 -115 -20 67 0
-15 -115 -19 67 0
-14 -115 -18 67 0
-13 -115 -17 67 0
-12 -115 -16 67 0
-11 -115 -22 72 0
-12 -115 -23 72 0
-13 -115 -24 72 0
-14 -115 -25 72 0
-15 -115 -24 72 0
-14 -115 -23 72 0
-13 -115 -22 72 0
-12 -115 -21 72 0
-16 -120 -2 52 0
-17 -120 -3 52 0
-18 -120 -4 52 0
-19 -120 -5 52 0
-20 -120 -4 52 0
-19 -120 -3 52 0
-18 -120 -2 52 0
-17 -120 -1 52 0
-16 -120 -7 57 0
-17 -120 -8 57 0
-18 -120 -9 57 0
-19 -120 -10 57 0
-20 -120 -9 57 0
-19 -120 -8 57 0
-18 -120 -7 57 0
-17 -120 -6 57 0
-16 -120 -12 62 0
-17 -120 -13 62 0
-18 -120 -14 62 0
-19 -120 -15 62 0
-20 -120 -14 62 0
-19 -120 -13 62 0
-18 -120 -12 62 0
-17 -120 -11 62 0
-16 -120 -22 72 0
-17 -120 -23 72 0
-18 -120 -24 72 0
-19 -120 -25 72 0
-20 -120 -24 72 0
-19 -120 -23 72 0
-18 -120 -22 72 0
-17 -120 -21 72 0
-21 -125 -2 52 0
-22 -125 -3 52 0
-23 -125 -4 52 0
-24 -125 -5 52 0
-25 -125 -4 52 0
-24 -125 -3 52 0
-23 -125 -2 52 0
-22 -125 -1 52 0
-21 -125 -7 57 0
-22 -125 -8 57 0
-23 -125 -9 57 0
-24 -125 -10 57 0
-25 -125 -9 57 0
-24 -125 -8 57 0
-23 -125 -7 57 0
-22 -125 -6 57 0
-21 -125 -12 62 0
-22 -125 -13 62 0
-23 -125 -14 62 0
-24 -125 -15 62 0
-25 -125 -14 62 0
-24 -125 -13 62 0
-23 -125 -12 62 0
-22 -125 -11 62 0
-21 -125 -17 67 0
-22 -125 -18 67 0
-23 -125 -19 67 0
-24 -125 -20 67 0
-25 -125 -19 67 0
-24 -125 -18 67 0
-23 -125 -17 67 0
-22 -125 -16 67 0
c The man who who keeps the horse lives next to the man who smokes Dunhill.
-1 -55 -7 108 0
-2 -55 -8 108 0
-3 -55 -9 108 0
-4 -55 -10 108 0
-5 -55 -9 108 0
-4 -55 -8 108 0
-3 -55 -7 108 0
-2 -55 -6 108 0
-1 -55 -12 113 0
-2 -55 -13 113 0
-3 -55 -14 113 0
-4 -55 -15 113 0
-5 -55 -14 113 0
-4 -55 -13 113 0
-3 -55 -12 113 0
-2 -55 -11 113 0
-1 -55 -17 118 0
-2 -55 -18 118 0
-3 -55 -19 118 0
-4 -55 -20 118 0
-5 -55 -19 118 0
-4 -55 -18 118 0
-3 -55 -17 118 0
-2 -55 -16 118 0
-1 -55 -22 123 0
-2 -55 -23 123 0
-3 -55 -24 123 0
-4 -55 -25 123 0
-5 -55 -24 123 0
-4 -55 -23 123 0
-3 -55 -22 123 0
-2 -55 -21 123 0
-6 -60 -2 103 0
-7 -60 -3 103 0
-8 -60 -4 103 0
-9 -60 -5 103 0
-10 -60 -4 103 0
-9 -60 -3 103 0
-8 -60 -2 103 0
-7 -60 -1 103 0
-6 -60 -12 113 0
-7 -60 -13 113 0
-8 -60 -14 113 0
-9 -60 -15 113 0
-10 -60 -14 113 0
-9 -60 -13 113 0
-8 -60 -12 113 0
-7 -60 -11 113 0
-6 -60 -17 118 0
-7 -60 -18 118 0
-8 -60 -19 118 0
-9 -60 -20 118 0
-10 -60 -19 118 0
-9 -60 -18 118 0
-8 -60 -17 118 0
-7 -60 -16 118 0
-6 -60 -22 123 0
-7 -60 -23 123 0
-8 -60 -24 123 0
-9 -60 -25 123 0
-10 -60 -24 123 0
-9 -60 -23 123 0
-8 -60 -22 123 0
-7 -60 -21 123 0
-11 -65 -2 103 0
-12 -65 -3 103 0
-13 -65 -4 103 0
-14 -65 -5 103 0
-15 -65 -4 103 0
-14 -65 -3 103 0
-13 -65 -2 103 0
-12 -65 -1 103 0
-11 -65 -7 108 0
-12 -65 -8 108 0
-13 -65 -9 108 0
-14 -65 -10 108 0
-15 -65 -9 108 0
-14 -65 -8 108 0
-13 -65 -7 108 0
-12 -65 -6 108 0
-11 -65 -17 118 0
-12 -65 -18 118 0
-13 -65 -19 118 0
-14 -65 -20 118 0
-15 -65 -19 118 0
-14 -65 -18 118 0
-13 -65 -17 118 0
-12 -65 -16 118 0
-11 -65 -22 123 0
-12 -65 -23 123 0
-13 -65 -24 123 0
-14 -65 -25 123 0
-15 -65 -24 123 0
-14 -65 -23 123 0
-13 -65 -22 123 0
-12 -65 -21 123 0
-16 -70 -2 103 0
-17 -70 -3 103 0
-18 -70 -4 103 0
-19 -70 -5 103 0
-20 -70 -4 103 0
-19 -70 -3 103 0
-18 -70 -2 103 0
-17 -70 -1 103 0
-16 -70 -7 108 0
-17 -70 -8 108 0
-18 -70 -9 108 0
-19 -70 -10 108 0
-20 -70 -9 108 0
-19 -70 -8 108 0
-18 -70 -7 108 0
-17 -70 -6 108 0
-16 -70 -12 113 0
-17 -70 -13 113 0
-18 -70 -14 113 0
-19 -70 -15 113 0
-20 -70 -14 113 0
-19 -70 -13 113 0
-18 -70 -12 113 0
-17 -70 -11 113 0
-16 -70 -22 123 0
-17 -70 -23 123 0
-18 -70 -24 123 0
-19 -70 -25 123 0
-20 -70 -24 123 0
-19 -70 -23 123 0
-18 -70 -22 123 0
-17 -70 -21 123 0
-21 -75 -2 103 0
-22 -75 -3 103 0
-23 -75 -4 103 0
-24 -75 -5 103 0
-25 -75 -4 103 0
-24 -75 -3 103 0
-23 -75 -2 103 0
-22 -75 -1 103 0
-21 -75 -7 108 0
-22 -75 -8 108 0
-23 -75 -9 108 0
-24 -75 -10 108 0
-25 -75 -9 108 0
-24 -75 -8 108 0
-23 -75 -7 108 0
-22 -75 -6 108 0
-21 -75 -12 113 0
-22 -75 -13 113 0
-23 -75 -14 113 0
-24 -75 -15 113 0
-25 -75 -14 113 0
-24 -75 -13 113 0
-23 -75 -12 113 0
-22 -75 -11 113 0
-21 -75 -17 118 0
-22 -75 -18 118 0
-23 -75 -19 118 0
-24 -75 -20 118 0
-25 -75 -19 118 0
-24 -75 -18 118 0
-23 -75 -17 118 0
-22 -75 -16 118 0
c The Norwegian lives next to the blue house.
-1 -30 22 0
-2 -30 21 23 0
-3 -30 22 24 0
-4 -30 23 25 0
-5 -30 24 0
-6 -35 22 0
-7 -35 21 23 0
-8 -35 22 24 0
-9 -35 23 25 0
-10 -35 24 0
-11 -40 22 0
-12 -40 21 23 0
-13 -40 22 24 0
-14 -40 23 25 0
-15 -40 24 0
-16 -45 22 0
-17 -45 21 23 0
-18 -45 22 24 0
-19 -45 23 25 0
-20 -45 24 0
c The man who smokes Blends has a neighbor who drinks water.
-1 -105 -83 7 0
-2 -105 -83 6 8 0
-3 -105 -83 7 9 0
-4 -105 -83 8 10 0
-5 -105 -83 9 0
-1 -105 -88 12 0
-2 -105 -88 11 13 0
-3 -105 -88 12 14 0
-4 -105 -88 13 15 0
-5 -105 -88 14 0
-1 -105 -93 17 0
-2 -105 -93 16 18 0
-3 -105 -93 17 19 0
-4 -105 -93 18 20 0
-5 -105 -93 19 0
-1 -105 -98 22 0
-2 -105 -98 21 23 0
-3 -105 -98 22 24 0
-4 -105 -98 23 25 0
-5 -105 -98 24 0
-6 -110 -78 2 0
-7 -110 -78 1 3 0
-8 -110 -78 2 4 0
-9 -110 -78 3 5 0
-10 -110 -78 4 0
-6 -110 -88 12 0
-7 -110 -88 11 13 0
-8 -110 -88 12 14 0
-9 -110 -88 13 15 0
-10 -110 -88 14 0
-6 -110 -93 17 0
-7 -110 -93 16 18 0
-8 -110 -93 17 19 0
-9 -110 -93 18 20 0
-10 -110 -93 19 0
-6 -110 -98 22 0
-7 -110 -98 21 23 0
-8 -110 -98 22 24 0
-9 -110 -98 23 25 0
-10 -110 -98 24 0
-11 -115 -78 2 0
-12 -115 -78 1 3 0
-13 -115 -78 2 4 0
-14 -115 -78 3 5 0
-15 -115 -78 4 0
-11 -115 -83 7 0
-12 -115 -83 6 8 0
-13 -115 -83 7 9 0
-14 -115 -83 8 10 0
-15 -115 -83 9 0
-11 -115 -93 17 0
-12 -115 -93 16 18 0
-13 -115 -93 17 19 0
-14 -115 -93 18 20 0
-15 -115 -93 19 0
-11 -115 -98 22 0
-12 -115 -98 21 23 0
-13 -115 -98 22 24 0
-14 -115 -98 23 25 0
-15 -115 -98 24 0
-16 -120 -78 2 0
-17 -120 -78 1 3 0
-18 -120 -78 2 4 0
-19 -120 -78 3 5 0
-20 -120 -78 4 0
-16 -120 -83 7 0
-17 -120 -83 6 8 0
-18 -120 -83 7 9 0
-19 -120 -83 8 10 0
-20 -120 -83 9 0
-16 -120 -88 12 0
-17 -120 -88 11 13 0
-18 -120 -88 12 14 0
-19 -120 -88 13 15 0
-20 -120 -88 14 0
-16 -120 -98 22 0
-17 -120 -98 21 23 0
-18 -120 -98 22 24 0
-19 -120 -98 23 25 0
-20 -120 -98 24 0
-21 -125 -78 2 0
-22 -125 -78 1 3 0
-23 -125 -78 2 4 0
-24 -125 -78 3 5 0
-25 -125 -78 4 0
-21 -125 -83 7 0
-22 -125 -83 6 8 0
-23 -125 -83 7 9 0
-24 -125 -83 8 10 0
-25 -125 -83 9 0
-21 -125 -88 12 0
-22 -125 -88 11 13 0
-23 -125 -88 12 14 0
-24 -125 -88 13 15 0
-25 -125 -88 14 0
-21 -125 -93 17 0
-22 -125 -93 16 18 0
-23 -125 -93 17 19 0
-24 -125 -93 18 20 0
-25 -125 -93 19 0
c Persons have different houses.
c For each nationality there exists at least one house.
1 2 3 4 5 0
6 7 8 9 10 0
11 12 13 14 15 0
16 17 18 19 20 0
21 22 23 24 25 0
c For each nationality there exists at most one house.
-1 -2 0
-1 -3 0
-1 -4 0
-1 -5 0
-2 -3 0
-2 -4 0
-2 -5 0
-3 -4 0
-3 -5 0
-4 -5 0
-6 -7 0
-6 -8 0
-6 -9 0
-6 -10 0
-7 -8 0
-7 -9 0
-7 -10 0
-8 -9 0
-8 -10 0
-9 -10 0
-11 -12 0
-11 -13 0
-11 -14 0
-11 -15 0
-12 -13 0
-12 -14 0
-12 -15 0
-13 -14 0
-13 -15 0
-14 -15 0
-16 -17 0
-16 -18 0
-16 -19 0
-16 -20 0
-17 -18 0
-17 -19 0
-17 -20 0
-18 -19 0
-18 -20 0
-19 -20 0
-21 -22 0
-21 -23 0
-21 -24 0
-21 -25 0
-22 -23 0
-22 -24 0
-22 -25 0
-23 -24 0
-23 -25 0
-24 -25 0
c Each house cannot be associated with two (or more) persons.
-1 -6 0
-1 -11 0
-1 -16 0
-1 -21 0
-6 -11 0
-6 -16 0
-6 -21 0
-11 -16 0
-11 -21 0
-16 -21 0
-2 -7 0
-2 -12 0
-2 -17 0
-2 -22 0
-7 -12 0
-7 -17 0
-7 -22 0
-12 -17 0
-12 -22 0
-17 -22 0
-3 -8 0
-3 -13 0
-3 -18 0
-3 -23 0
-8 -13 0
-8 -18 0
-8 -23 0
-13 -18 0
-13 -23 0
-18 -23 0
-4 -9 0
-4 -14 0
-4 -19 0
-4 -24 0
-9 -14 0
-9 -19 0
-9 -24 0
-14 -19 0
-14 -24 0
-19 -24 0
-5 -10 0
-5 -15 0
-5 -20 0
-5 -25 0
-10 -15 0
-10 -20 0
-10 -25 0
-15 -20 0
-15 -25 0
-20 -25 0
c Persons have different house colors.
c For each nationality there exists at least one house color.
26 27 28 29 30 0
31 32 33 34 35 0
36 37 38 39 40 0
41 42 43 44 45 0
46 47 48 49 50 0
c For each nationality there exists at most one house color.
-26 -27 0
-26 -28 0
-26 -29 0
-26 -30 0
-27 -28 0
-27 -29 0
-27 -30 0
-28 -29 0
-28 -30 0
-29 -30 0
-31 -32 0
-31 -33 0
-31 -34 0
-31 -35 0
-32 -33 0
-32 -34 0
-32 -35 0
-33 -34 0
-33 -35 0
-34 -35 0
-36 -37 0
-36 -38 0
-36 -39 0
-36 -40 0
-37 -38 0
-37 -39 0
-37 -40 0
-38 -39 0
-38 -40 0
-39 -40 0
-41 -42 0
-41 -43 0
-41 -44 0
-41 -45 0
-42 -43 0
-42 -44 0
-42 -45 0
-43 -44 0
-43 -45 0
-44 -45 0
-46 -47 0
-46 -48 0
-46 -49 0
-46 -50 0
-47 -48 0
-47 -49 0
-47 -50 0
-48 -49 0
-48 -50 0
-49 -50 0
c Each house color cannot be associated with two (or more) persons.
-26 -31 0
-26 -36 0
-26 -41 0
-26 -46 0
-31 -36 0
-31 -41 0
-31 -46 0
-36 -41 0
-36 -46 0
-41 -46 0
-27 -32 0
-27 -37 0
-27 -42 0
-27 -47 0
-32 -37 0
-32 -42 0
-32 -47 0
-37 -42 0
-37 -47 0
-42 -47 0
-28 -33 0
-28 -38 0
-28 -43 0
-28 -48 0
-33 -38 0
-33 -43 0
-33 -48 0
-38 -43 0
-38 -48 0
-43 -48 0
-29 -34 0
-29 -39 0
-29 -44 0
-29 -49 0
-34 -39 0
-34 -44 0
-34 -49 0
-39 -44 0
-39 -49 0
-44 -49 0
-30 -35 0
-30 -40 0
-30 -45 0
-30 -50 0
-35 -40 0
-35 -45 0
-35 -50 0
-40 -45 0
-40 -50 0
-45 -50 0
c Persons have different pets.
c For each nationality there exists at least one pet.
51 52 53 54 55 0
56 57 58 59 60 0
61 62 63 64 65 0
66 67 68 69 70 0
71 72 73 74 75 0
c For each nationality there exists at most one pet.
-51 -52 0
-51 -53 0
-51 -54 0
-51 -55 0
-52 -53 0
-52 -54 0
-52 -55 0
-53 -54 0
-53 -55 0
-54 -55 0
-56 -57 0
-56 -58 0
-56 -59 0
-56 -60 0
-57 -58 0
-57 -59 0
-57 -60 0
-58 -59 0
-58 -60 0
-59 -60 0
-61 -62 0
-61 -63 0
-61 -64 0
-61 -65 0
-62 -63 0
-62 -64 0
-62 -65 0
-63 -64 0
-63 -65 0
-64 -65 0
-66 -67 0
-66 -68 0
-66 -69 0
-66 -70 0
-67 -68 0
-67 -69 0
-67 -70 0
-68 -69 0
-68 -70 0
-69 -70 0
-71 -72 0
-71 -73 0
-71 -74 0
-71 -75 0
-72 -73 0
-72 -74 0
-72 -75 0
-73 -74 0
-73 -75 0
-74 -75 0
c Each pet cannot be associated with two (or more) persons.
-51 -56 0
-51 -61 0
-51 -66 0
-51 -71 0
-56 -61 0
-56 -66 0
-56 -71 0
-61 -66 0
-61 -71 0
-66 -71 0
-52 -57 0
-52 -62 0
-52 -67 0
-52 -72 0
-57 -62 0
-57 -67 0
-57 -72 0
-62 -67 0
-62 -72 0
-67 -72 0
-53 -58 0
-53 -63 0
-53 -68 0
-53 -73 0
-58 -63 0
-58 -68 0
-58 -73 0
-63 -68 0
-63 -73 0
-68 -73 0
-54 -59 0
-54 -64 0
-54 -69 0
-54 -74 0
-59 -64 0
-59 -69 0
-59 -74 0
-64 -69 0
-64 -74 0
-69 -74 0
-55 -60 0
-55 -65 0
-55 -70 0
-55 -75 0
-60 -65 0
-60 -70 0
-60 -75 0
-65 -70 0
-65 -75 0
-70 -75 0
c Persons have different drinks.
c For each nationality there exists at least one drink.
76 77 78 79 80 0
81 82 83 84 85 0
86 87 88 89 90 0
91 92 93 94 95 0
96 97 98 99 100 0
c For each nationality there exists at most one drink.
-76 -77 0
-76 -78 0
-76 -79 0
-76 -80 0
-77 -78 0
-77 -79 0
-77 -80 0
-78 -79 0
-78 -80 0
-79 -80 0
-81 -82 0
-81 -83 0
-81 -84 0
-81 -85 0
-82 -83 0
-82 -84 0
-82 -85 0
-83 -84 0
-83 -85 0
-84 -85 0
-86 -87 0
-86 -88 0
-86 -89 0
-86 -90 0
-87 -88 0
-87 -89 0
-87 -90 0
-88 -89 0
-88 -90 0
-89 -90 0
-91 -92 0
-91 -93 0
-91 -94 0
-91 -95 0
-92 -93 0
-92 -94 0
-92 -95 0
-93 -94 0
-93 -95 0
-94 -95 0
-96 -97 0
-96 -98 0
-96 -99 0
-96 -100 0
-97 -98 0
-97 -99 0
-97 -100 0
-98 -99 0
-98 -100 0
-99 -100 0
c Each drink cannot be associated with two (or more) persons.
-76 -81 0
-76 -86 0
-76 -91 0
-76 -96 0
-81 -86 0
-81 -91 0
-81 -96 0
-86 -91 0
-86 -96 0
-91 -96 0
-77 -82 0
-77 -87 0
-77 -92 0
-77 -97 0
-82 -87 0
-82 -92 0
-82 -97 0
-87 -92 0
-87 -97 0
-92 -97 0
-78 -83 0
-78 -88 0
-78 -93 0
-78 -98 0
-83 -88 0
-83 -93 0
-83 -98 0
-88 -93 0
-88 -98 0
-93 -98 0
-79 -84 0
-79 -89 0
-79 -94 0
-79 -99 0
-84 -89 0
-84 -94 0
-84 -99 0
-89 -94 0
-89 -99 0
-94 -99 0
-80 -85 0
-80 -90 0
-80 -95 0
-80 -100 0
-85 -90 0
-85 -95 0
-85 -100 0
-90 -95 0
-90 -100 0
-95 -100 0
c Persons have different cigarettes.
c For each nationality there exists at least one cigarette.
101 102 103 104 105 0
106 107 108 109 110 0
111 112 113 114 115 0
116 117 118 119 120 0
121 122 123 124 125 0
c For each nationality there exists at most one cigarette.
-101 -102 0
-101 -103 0
-101 -104 0
-101 -105 0
-102 -103 0
-102 -104 0
-102 -105 0
-103 -104 0
-103 -105 0
-104 -105 0
-106 -107 0
-106 -108 0
-106 -109 0
-106 -110 0
-107 -108 0
-107 -109 0
-107 -110 0
-108 -109 0
-108 -110 0
-109 -110 0
-111 -112 0
-111 -113 0
-111 -114 0
-111 -115 0
-112 -113 0
-112 -114 0
-112 -115 0
-113 -114 0
-113 -115 0
-114 -115 0
-116 -117 0
-116 -118 0
-116 -119 0
-116 -120 0
-117 -118 0
-117 -119 0
-117 -120 0
-118 -119 0
-118 -120 0
-119 -120 0
-121 -122 0
-121 -123 0
-121 -124 0
-121 -125 0
-122 -123 0
-122 -124 0
-122 -125 0
-123 -124 0
-123 -125 0
-124 -125 0
c Each cigarette cannot be associated with two (or more) persons.
-101 -106 0
-101 -111 0
-101 -116 0
-101 -121 0
-106 -111 0
-106 -116 0
-106 -121 0
-111 -116 0
-111 -121 0
-116 -121 0
-102 -107 0
-102 -112 0
-102 -117 0
-102 -122 0
-107 -112 0
-107 -117 0
-107 -122 0
-112 -117 0
-112 -122 0
-117 -122 0
-103 -108 0
-103 -113 0
-103 -118 0
-103 -123 0
-108 -113 0
-108 -118 0
-108 -123 0
-113 -118 0
-113 -123 0
-118 -123 0
-104 -109 0
-104 -114 0
-104 -119 0
-104 -124 0
-109 -114 0
-109 -119 0
-109 -124 0
-114 -119 0
-114 -124 0
-119 -124 0
-105 -110 0
-105 -115 0
-105 -120 0
-105 -125 0
-110 -115 0
-110 -120 0
-110 -125 0
-115 -120 0
-115 -125 0
-120 -125 0
